p cnf 476 1592
14 253 0
-14 -253 0
225 462 0
-225 -462 0
1 239 0
-1 -239 0
1 2 240 0
-1 -2 0
-1 -240 0
-2 -240 0
2 3 241 0
-2 -3 0
-2 -241 0
-3 -241 0
3 4 242 0
-3 -4 0
-3 -242 0
-4 -242 0
4 5 243 0
-4 -5 0
-4 -243 0
-5 -243 0
5 6 244 0
-5 -6 0
-5 -244 0
-6 -244 0
6 7 245 0
-6 -7 0
-6 -245 0
-7 -245 0
7 8 246 0
-7 -8 0
-7 -246 0
-8 -246 0
8 9 247 0
-8 -9 0
-8 -247 0
-9 -247 0
9 10 248 0
-9 -10 0
-9 -248 0
-10 -248 0
10 11 249 0
-10 -11 0
-10 -249 0
-11 -249 0
11 12 250 0
-11 -12 0
-11 -250 0
-12 -250 0
12 13 251 0
-12 -13 0
-12 -251 0
-13 -251 0
13 14 252 0
-13 -14 0
-13 -252 0
-14 -252 0
225 226 463 0
-225 -226 0
-225 -463 0
-226 -463 0
226 227 464 0
-226 -227 0
-226 -464 0
-227 -464 0
227 228 465 0
-227 -228 0
-227 -465 0
-228 -465 0
228 229 466 0
-228 -229 0
-228 -466 0
-229 -466 0
229 230 467 0
-229 -230 0
-229 -467 0
-230 -467 0
230 231 468 0
-230 -231 0
-230 -468 0
-231 -468 0
231 232 469 0
-231 -232 0
-231 -469 0
-232 -469 0
232 233 470 0
-232 -233 0
-232 -470 0
-233 -470 0
233 234 471 0
-233 -234 0
-233 -471 0
-234 -471 0
234 235 472 0
-234 -235 0
-234 -472 0
-235 -472 0
235 236 473 0
-235 -236 0
-235 -473 0
-236 -473 0
236 237 474 0
-236 -237 0
-236 -474 0
-237 -474 0
237 238 475 0
-237 -238 0
-237 -475 0
-238 -475 0
238 476 0
-238 -476 0
15 254 0
-15 -254 0
30 254 270 0
-30 -254 0
-30 -270 0
-254 -270 0
45 270 286 0
-45 -270 0
-45 -286 0
-270 -286 0
60 286 302 0
-60 -286 0
-60 -302 0
-286 -302 0
75 302 318 0
-75 -302 0
-75 -318 0
-302 -318 0
90 318 334 0
-90 -318 0
-90 -334 0
-318 -334 0
105 334 350 0
-105 -334 0
-105 -350 0
-334 -350 0
120 350 366 0
-120 -350 0
-120 -366 0
-350 -366 0
135 366 382 0
-135 -366 0
-135 -382 0
-366 -382 0
150 382 398 0
-150 -382 0
-150 -398 0
-382 -398 0
165 398 414 0
-165 -398 0
-165 -414 0
-398 -414 0
180 414 430 0
-180 -414 0
-180 -430 0
-414 -430 0
195 430 446 0
-195 -430 0
-195 -446 0
-430 -446 0
210 446 462 0
-210 -446 0
-210 -462 0
-446 -462 0
29 253 269 0
-29 -253 0
-29 -269 0
-253 -269 0
44 269 285 0
-44 -269 0
-44 -285 0
-269 -285 0
59 285 301 0
-59 -285 0
-59 -301 0
-285 -301 0
74 301 317 0
-74 -301 0
-74 -317 0
-301 -317 0
89 317 333 0
-89 -317 0
-89 -333 0
-317 -333 0
104 333 349 0
-104 -333 0
-104 -349 0
-333 -349 0
119 349 365 0
-119 -349 0
-119 -365 0
-349 -365 0
134 365 381 0
-134 -365 0
-134 -381 0
-365 -381 0
149 381 397 0
-149 -381 0
-149 -397 0
-381 -397 0
164 397 413 0
-164 -397 0
-164 -413 0
-397 -413 0
179 413 429 0
-179 -413 0
-179 -429 0
-413 -429 0
194 429 445 0
-194 -429 0
-194 -445 0
-429 -445 0
209 445 461 0
-209 -445 0
-209 -461 0
-445 -461 0
224 461 0
-224 -461 0
15 16 239 255 0
-15 -16 0
-15 -239 0
-15 -255 0
-16 -239 0
-16 -255 0
-239 -255 0
16 17 240 256 0
-16 -17 0
-16 -240 0
-16 -256 0
-17 -240 0
-17 -256 0
-240 -256 0
17 18 241 257 0
-17 -18 0
-17 -241 0
-17 -257 0
-18 -241 0
-18 -257 0
-241 -257 0
18 19 242 258 0
-18 -19 0
-18 -242 0
-18 -258 0
-19 -242 0
-19 -258 0
-242 -258 0
19 20 243 259 0
-19 -20 0
-19 -243 0
-19 -259 0
-20 -243 0
-20 -259 0
-243 -259 0
20 21 244 260 0
-20 -21 0
-20 -244 0
-20 -260 0
-21 -244 0
-21 -260 0
-244 -260 0
21 22 245 261 0
-21 -22 0
-21 -245 0
-21 -261 0
-22 -245 0
-22 -261 0
-245 -261 0
22 23 246 262 0
-22 -23 0
-22 -246 0
-22 -262 0
-23 -246 0
-23 -262 0
-246 -262 0
23 24 247 263 0
-23 -24 0
-23 -247 0
-23 -263 0
-24 -247 0
-24 -263 0
-247 -263 0
24 25 248 264 0
-24 -25 0
-24 -248 0
-24 -264 0
-25 -248 0
-25 -264 0
-248 -264 0
25 26 249 265 0
-25 -26 0
-25 -249 0
-25 -265 0
-26 -249 0
-26 -265 0
-249 -265 0
26 27 250 266 0
-26 -27 0
-26 -250 0
-26 -266 0
-27 -250 0
-27 -266 0
-250 -266 0
27 28 251 267 0
-27 -28 0
-27 -251 0
-27 -267 0
-28 -251 0
-28 -267 0
-251 -267 0
28 29 252 268 0
-28 -29 0
-28 -252 0
-28 -268 0
-29 -252 0
-29 -268 0
-252 -268 0
30 31 255 271 0
-30 -31 0
-30 -255 0
-30 -271 0
-31 -255 0
-31 -271 0
-255 -271 0
31 32 256 272 0
-31 -32 0
-31 -256 0
-31 -272 0
-32 -256 0
-32 -272 0
-256 -272 0
32 33 257 273 0
-32 -33 0
-32 -257 0
-32 -273 0
-33 -257 0
-33 -273 0
-257 -273 0
33 34 258 274 0
-33 -34 0
-33 -258 0
-33 -274 0
-34 -258 0
-34 -274 0
-258 -274 0
34 35 259 275 0
-34 -35 0
-34 -259 0
-34 -275 0
-35 -259 0
-35 -275 0
-259 -275 0
35 36 260 276 0
-35 -36 0
-35 -260 0
-35 -276 0
-36 -260 0
-36 -276 0
-260 -276 0
36 37 261 277 0
-36 -37 0
-36 -261 0
-36 -277 0
-37 -261 0
-37 -277 0
-261 -277 0
37 38 262 278 0
-37 -38 0
-37 -262 0
-37 -278 0
-38 -262 0
-38 -278 0
-262 -278 0
38 39 263 279 0
-38 -39 0
-38 -263 0
-38 -279 0
-39 -263 0
-39 -279 0
-263 -279 0
39 40 264 280 0
-39 -40 0
-39 -264 0
-39 -280 0
-40 -264 0
-40 -280 0
-264 -280 0
40 41 265 281 0
-40 -41 0
-40 -265 0
-40 -281 0
-41 -265 0
-41 -281 0
-265 -281 0
41 42 266 282 0
-41 -42 0
-41 -266 0
-41 -282 0
-42 -266 0
-42 -282 0
-266 -282 0
42 43 267 283 0
-42 -43 0
-42 -267 0
-42 -283 0
-43 -267 0
-43 -283 0
-267 -283 0
43 44 268 284 0
-43 -44 0
-43 -268 0
-43 -284 0
-44 -268 0
-44 -284 0
-268 -284 0
45 46 271 287 0
-45 -46 0
-45 -271 0
-45 -287 0
-46 -271 0
-46 -287 0
-271 -287 0
46 47 272 288 0
-46 -47 0
-46 -272 0
-46 -288 0
-47 -272 0
-47 -288 0
-272 -288 0
47 48 273 289 0
-47 -48 0
-47 -273 0
-47 -289 0
-48 -273 0
-48 -289 0
-273 -289 0
48 49 274 290 0
-48 -49 0
-48 -274 0
-48 -290 0
-49 -274 0
-49 -290 0
-274 -290 0
49 50 275 291 0
-49 -50 0
-49 -275 0
-49 -291 0
-50 -275 0
-50 -291 0
-275 -291 0
50 51 276 292 0
-50 -51 0
-50 -276 0
-50 -292 0
-51 -276 0
-51 -292 0
-276 -292 0
51 52 277 293 0
-51 -52 0
-51 -277 0
-51 -293 0
-52 -277 0
-52 -293 0
-277 -293 0
52 53 278 294 0
-52 -53 0
-52 -278 0
-52 -294 0
-53 -278 0
-53 -294 0
-278 -294 0
53 54 279 295 0
-53 -54 0
-53 -279 0
-53 -295 0
-54 -279 0
-54 -295 0
-279 -295 0
54 55 280 296 0
-54 -55 0
-54 -280 0
-54 -296 0
-55 -280 0
-55 -296 0
-280 -296 0
55 56 281 297 0
-55 -56 0
-55 -281 0
-55 -297 0
-56 -281 0
-56 -297 0
-281 -297 0
56 57 282 298 0
-56 -57 0
-56 -282 0
-56 -298 0
-57 -282 0
-57 -298 0
-282 -298 0
57 58 283 299 0
-57 -58 0
-57 -283 0
-57 -299 0
-58 -283 0
-58 -299 0
-283 -299 0
58 59 284 300 0
-58 -59 0
-58 -284 0
-58 -300 0
-59 -284 0
-59 -300 0
-284 -300 0
60 61 287 303 0
-60 -61 0
-60 -287 0
-60 -303 0
-61 -287 0
-61 -303 0
-287 -303 0
61 62 288 304 0
-61 -62 0
-61 -288 0
-61 -304 0
-62 -288 0
-62 -304 0
-288 -304 0
62 63 289 305 0
-62 -63 0
-62 -289 0
-62 -305 0
-63 -289 0
-63 -305 0
-289 -305 0
63 64 290 306 0
-63 -64 0
-63 -290 0
-63 -306 0
-64 -290 0
-64 -306 0
-290 -306 0
64 65 291 307 0
-64 -65 0
-64 -291 0
-64 -307 0
-65 -291 0
-65 -307 0
-291 -307 0
65 66 292 308 0
-65 -66 0
-65 -292 0
-65 -308 0
-66 -292 0
-66 -308 0
-292 -308 0
66 67 293 309 0
-66 -67 0
-66 -293 0
-66 -309 0
-67 -293 0
-67 -309 0
-293 -309 0
67 68 294 310 0
-67 -68 0
-67 -294 0
-67 -310 0
-68 -294 0
-68 -310 0
-294 -310 0
68 69 295 311 0
-68 -69 0
-68 -295 0
-68 -311 0
-69 -295 0
-69 -311 0
-295 -311 0
69 70 296 312 0
-69 -70 0
-69 -296 0
-69 -312 0
-70 -296 0
-70 -312 0
-296 -312 0
70 71 297 313 0
-70 -71 0
-70 -297 0
-70 -313 0
-71 -297 0
-71 -313 0
-297 -313 0
71 72 298 314 0
-71 -72 0
-71 -298 0
-71 -314 0
-72 -298 0
-72 -314 0
-298 -314 0
72 73 299 315 0
-72 -73 0
-72 -299 0
-72 -315 0
-73 -299 0
-73 -315 0
-299 -315 0
73 74 300 316 0
-73 -74 0
-73 -300 0
-73 -316 0
-74 -300 0
-74 -316 0
-300 -316 0
75 76 303 319 0
-75 -76 0
-75 -303 0
-75 -319 0
-76 -303 0
-76 -319 0
-303 -319 0
76 77 304 320 0
-76 -77 0
-76 -304 0
-76 -320 0
-77 -304 0
-77 -320 0
-304 -320 0
77 78 305 321 0
-77 -78 0
-77 -305 0
-77 -321 0
-78 -305 0
-78 -321 0
-305 -321 0
78 79 306 322 0
-78 -79 0
-78 -306 0
-78 -322 0
-79 -306 0
-79 -322 0
-306 -322 0
79 80 307 323 0
-79 -80 0
-79 -307 0
-79 -323 0
-80 -307 0
-80 -323 0
-307 -323 0
80 81 308 324 0
-80 -81 0
-80 -308 0
-80 -324 0
-81 -308 0
-81 -324 0
-308 -324 0
81 82 309 325 0
-81 -82 0
-81 -309 0
-81 -325 0
-82 -309 0
-82 -325 0
-309 -325 0
82 83 310 326 0
-82 -83 0
-82 -310 0
-82 -326 0
-83 -310 0
-83 -326 0
-310 -326 0
83 84 311 327 0
-83 -84 0
-83 -311 0
-83 -327 0
-84 -311 0
-84 -327 0
-311 -327 0
84 85 312 328 0
-84 -85 0
-84 -312 0
-84 -328 0
-85 -312 0
-85 -328 0
-312 -328 0
85 86 313 329 0
-85 -86 0
-85 -313 0
-85 -329 0
-86 -313 0
-86 -329 0
-313 -329 0
86 87 314 330 0
-86 -87 0
-86 -314 0
-86 -330 0
-87 -314 0
-87 -330 0
-314 -330 0
87 88 315 331 0
-87 -88 0
-87 -315 0
-87 -331 0
-88 -315 0
-88 -331 0
-315 -331 0
88 89 316 332 0
-88 -89 0
-88 -316 0
-88 -332 0
-89 -316 0
-89 -332 0
-316 -332 0
90 91 319 335 0
-90 -91 0
-90 -319 0
-90 -335 0
-91 -319 0
-91 -335 0
-319 -335 0
91 92 320 336 0
-91 -92 0
-91 -320 0
-91 -336 0
-92 -320 0
-92 -336 0
-320 -336 0
92 93 321 337 0
-92 -93 0
-92 -321 0
-92 -337 0
-93 -321 0
-93 -337 0
-321 -337 0
93 94 322 338 0
-93 -94 0
-93 -322 0
-93 -338 0
-94 -322 0
-94 -338 0
-322 -338 0
94 95 323 339 0
-94 -95 0
-94 -323 0
-94 -339 0
-95 -323 0
-95 -339 0
-323 -339 0
95 96 324 340 0
-95 -96 0
-95 -324 0
-95 -340 0
-96 -324 0
-96 -340 0
-324 -340 0
96 97 325 341 0
-96 -97 0
-96 -325 0
-96 -341 0
-97 -325 0
-97 -341 0
-325 -341 0
97 98 326 342 0
-97 -98 0
-97 -326 0
-97 -342 0
-98 -326 0
-98 -342 0
-326 -342 0
98 99 327 343 0
-98 -99 0
-98 -327 0
-98 -343 0
-99 -327 0
-99 -343 0
-327 -343 0
99 100 328 344 0
-99 -100 0
-99 -328 0
-99 -344 0
-100 -328 0
-100 -344 0
-328 -344 0
100 101 329 345 0
-100 -101 0
-100 -329 0
-100 -345 0
-101 -329 0
-101 -345 0
-329 -345 0
101 102 330 346 0
-101 -102 0
-101 -330 0
-101 -346 0
-102 -330 0
-102 -346 0
-330 -346 0
102 103 331 347 0
-102 -103 0
-102 -331 0
-102 -347 0
-103 -331 0
-103 -347 0
-331 -347 0
103 104 332 348 0
-103 -104 0
-103 -332 0
-103 -348 0
-104 -332 0
-104 -348 0
-332 -348 0
105 106 335 351 0
-105 -106 0
-105 -335 0
-105 -351 0
-106 -335 0
-106 -351 0
-335 -351 0
106 107 336 352 0
-106 -107 0
-106 -336 0
-106 -352 0
-107 -336 0
-107 -352 0
-336 -352 0
107 108 337 353 0
-107 -108 0
-107 -337 0
-107 -353 0
-108 -337 0
-108 -353 0
-337 -353 0
108 109 338 354 0
-108 -109 0
-108 -338 0
-108 -354 0
-109 -338 0
-109 -354 0
-338 -354 0
109 110 339 355 0
-109 -110 0
-109 -339 0
-109 -355 0
-110 -339 0
-110 -355 0
-339 -355 0
110 111 340 356 0
-110 -111 0
-110 -340 0
-110 -356 0
-111 -340 0
-111 -356 0
-340 -356 0
111 112 341 357 0
-111 -112 0
-111 -341 0
-111 -357 0
-112 -341 0
-112 -357 0
-341 -357 0
112 113 342 358 0
-112 -113 0
-112 -342 0
-112 -358 0
-113 -342 0
-113 -358 0
-342 -358 0
113 114 343 359 0
-113 -114 0
-113 -343 0
-113 -359 0
-114 -343 0
-114 -359 0
-343 -359 0
114 115 344 360 0
-114 -115 0
-114 -344 0
-114 -360 0
-115 -344 0
-115 -360 0
-344 -360 0
115 116 345 361 0
-115 -116 0
-115 -345 0
-115 -361 0
-116 -345 0
-116 -361 0
-345 -361 0
116 117 346 362 0
-116 -117 0
-116 -346 0
-116 -362 0
-117 -346 0
-117 -362 0
-346 -362 0
117 118 347 363 0
-117 -118 0
-117 -347 0
-117 -363 0
-118 -347 0
-118 -363 0
-347 -363 0
118 119 348 364 0
-118 -119 0
-118 -348 0
-118 -364 0
-119 -348 0
-119 -364 0
-348 -364 0
120 121 351 367 0
-120 -121 0
-120 -351 0
-120 -367 0
-121 -351 0
-121 -367 0
-351 -367 0
121 122 352 368 0
-121 -122 0
-121 -352 0
-121 -368 0
-122 -352 0
-122 -368 0
-352 -368 0
122 123 353 369 0
-122 -123 0
-122 -353 0
-122 -369 0
-123 -353 0
-123 -369 0
-353 -369 0
123 124 354 370 0
-123 -124 0
-123 -354 0
-123 -370 0
-124 -354 0
-124 -370 0
-354 -370 0
124 125 355 371 0
-124 -125 0
-124 -355 0
-124 -371 0
-125 -355 0
-125 -371 0
-355 -371 0
125 126 356 372 0
-125 -126 0
-125 -356 0
-125 -372 0
-126 -356 0
-126 -372 0
-356 -372 0
126 127 357 373 0
-126 -127 0
-126 -357 0
-126 -373 0
-127 -357 0
-127 -373 0
-357 -373 0
127 128 358 374 0
-127 -128 0
-127 -358 0
-127 -374 0
-128 -358 0
-128 -374 0
-358 -374 0
128 129 359 375 0
-128 -129 0
-128 -359 0
-128 -375 0
-129 -359 0
-129 -375 0
-359 -375 0
129 130 360 376 0
-129 -130 0
-129 -360 0
-129 -376 0
-130 -360 0
-130 -376 0
-360 -376 0
130 131 361 377 0
-130 -131 0
-130 -361 0
-130 -377 0
-131 -361 0
-131 -377 0
-361 -377 0
131 132 362 378 0
-131 -132 0
-131 -362 0
-131 -378 0
-132 -362 0
-132 -378 0
-362 -378 0
132 133 363 379 0
-132 -133 0
-132 -363 0
-132 -379 0
-133 -363 0
-133 -379 0
-363 -379 0
133 134 364 380 0
-133 -134 0
-133 -364 0
-133 -380 0
-134 -364 0
-134 -380 0
-364 -380 0
135 136 367 383 0
-135 -136 0
-135 -367 0
-135 -383 0
-136 -367 0
-136 -383 0
-367 -383 0
136 137 368 384 0
-136 -137 0
-136 -368 0
-136 -384 0
-137 -368 0
-137 -384 0
-368 -384 0
137 138 369 385 0
-137 -138 0
-137 -369 0
-137 -385 0
-138 -369 0
-138 -385 0
-369 -385 0
138 139 370 386 0
-138 -139 0
-138 -370 0
-138 -386 0
-139 -370 0
-139 -386 0
-370 -386 0
139 140 371 387 0
-139 -140 0
-139 -371 0
-139 -387 0
-140 -371 0
-140 -387 0
-371 -387 0
140 141 372 388 0
-140 -141 0
-140 -372 0
-140 -388 0
-141 -372 0
-141 -388 0
-372 -388 0
141 142 373 389 0
-141 -142 0
-141 -373 0
-141 -389 0
-142 -373 0
-142 -389 0
-373 -389 0
142 143 374 390 0
-142 -143 0
-142 -374 0
-142 -390 0
-143 -374 0
-143 -390 0
-374 -390 0
143 144 375 391 0
-143 -144 0
-143 -375 0
-143 -391 0
-144 -375 0
-144 -391 0
-375 -391 0
144 145 376 392 0
-144 -145 0
-144 -376 0
-144 -392 0
-145 -376 0
-145 -392 0
-376 -392 0
145 146 377 393 0
-145 -146 0
-145 -377 0
-145 -393 0
-146 -377 0
-146 -393 0
-377 -393 0
146 147 378 394 0
-146 -147 0
-146 -378 0
-146 -394 0
-147 -378 0
-147 -394 0
-378 -394 0
147 148 379 395 0
-147 -148 0
-147 -379 0
-147 -395 0
-148 -379 0
-148 -395 0
-379 -395 0
148 149 380 396 0
-148 -149 0
-148 -380 0
-148 -396 0
-149 -380 0
-149 -396 0
-380 -396 0
150 151 383 399 0
-150 -151 0
-150 -383 0
-150 -399 0
-151 -383 0
-151 -399 0
-383 -399 0
151 152 384 400 0
-151 -152 0
-151 -384 0
-151 -400 0
-152 -384 0
-152 -400 0
-384 -400 0
152 153 385 401 0
-152 -153 0
-152 -385 0
-152 -401 0
-153 -385 0
-153 -401 0
-385 -401 0
153 154 386 402 0
-153 -154 0
-153 -386 0
-153 -402 0
-154 -386 0
-154 -402 0
-386 -402 0
154 155 387 403 0
-154 -155 0
-154 -387 0
-154 -403 0
-155 -387 0
-155 -403 0
-387 -403 0
155 156 388 404 0
-155 -156 0
-155 -388 0
-155 -404 0
-156 -388 0
-156 -404 0
-388 -404 0
156 157 389 405 0
-156 -157 0
-156 -389 0
-156 -405 0
-157 -389 0
-157 -405 0
-389 -405 0
157 158 390 406 0
-157 -158 0
-157 -390 0
-157 -406 0
-158 -390 0
-158 -406 0
-390 -406 0
158 159 391 407 0
-158 -159 0
-158 -391 0
-158 -407 0
-159 -391 0
-159 -407 0
-391 -407 0
159 160 392 408 0
-159 -160 0
-159 -392 0
-159 -408 0
-160 -392 0
-160 -408 0
-392 -408 0
160 161 393 409 0
-160 -161 0
-160 -393 0
-160 -409 0
-161 -393 0
-161 -409 0
-393 -409 0
161 162 394 410 0
-161 -162 0
-161 -394 0
-161 -410 0
-162 -394 0
-162 -410 0
-394 -410 0
162 163 395 411 0
-162 -163 0
-162 -395 0
-162 -411 0
-163 -395 0
-163 -411 0
-395 -411 0
163 164 396 412 0
-163 -164 0
-163 -396 0
-163 -412 0
-164 -396 0
-164 -412 0
-396 -412 0
165 166 399 415 0
-165 -166 0
-165 -399 0
-165 -415 0
-166 -399 0
-166 -415 0
-399 -415 0
166 167 400 416 0
-166 -167 0
-166 -400 0
-166 -416 0
-167 -400 0
-167 -416 0
-400 -416 0
167 168 401 417 0
-167 -168 0
-167 -401 0
-167 -417 0
-168 -401 0
-168 -417 0
-401 -417 0
168 169 402 418 0
-168 -169 0
-168 -402 0
-168 -418 0
-169 -402 0
-169 -418 0
-402 -418 0
169 170 403 419 0
-169 -170 0
-169 -403 0
-169 -419 0
-170 -403 0
-170 -419 0
-403 -419 0
170 171 404 420 0
-170 -171 0
-170 -404 0
-170 -420 0
-171 -404 0
-171 -420 0
-404 -420 0
171 172 405 421 0
-171 -172 0
-171 -405 0
-171 -421 0
-172 -405 0
-172 -421 0
-405 -421 0
172 173 406 422 0
-172 -173 0
-172 -406 0
-172 -422 0
-173 -406 0
-173 -422 0
-406 -422 0
173 174 407 423 0
-173 -174 0
-173 -407 0
-173 -423 0
-174 -407 0
-174 -423 0
-407 -423 0
174 175 408 424 0
-174 -175 0
-174 -408 0
-174 -424 0
-175 -408 0
-175 -424 0
-408 -424 0
175 176 409 425 0
-175 -176 0
-175 -409 0
-175 -425 0
-176 -409 0
-176 -425 0
-409 -425 0
176 177 410 426 0
-176 -177 0
-176 -410 0
-176 -426 0
-177 -410 0
-177 -426 0
-410 -426 0
177 178 411 427 0
-177 -178 0
-177 -411 0
-177 -427 0
-178 -411 0
-178 -427 0
-411 -427 0
178 179 412 428 0
-178 -179 0
-178 -412 0
-178 -428 0
-179 -412 0
-179 -428 0
-412 -428 0
180 181 415 431 0
-180 -181 0
-180 -415 0
-180 -431 0
-181 -415 0
-181 -431 0
-415 -431 0
181 182 416 432 0
-181 -182 0
-181 -416 0
-181 -432 0
-182 -416 0
-182 -432 0
-416 -432 0
182 183 417 433 0
-182 -183 0
-182 -417 0
-182 -433 0
-183 -417 0
-183 -433 0
-417 -433 0
183 184 418 434 0
-183 -184 0
-183 -418 0
-183 -434 0
-184 -418 0
-184 -434 0
-418 -434 0
184 185 419 435 0
-184 -185 0
-184 -419 0
-184 -435 0
-185 -419 0
-185 -435 0
-419 -435 0
185 186 420 436 0
-185 -186 0
-185 -420 0
-185 -436 0
-186 -420 0
-186 -436 0
-420 -436 0
186 187 421 437 0
-186 -187 0
-186 -421 0
-186 -437 0
-187 -421 0
-187 -437 0
-421 -437 0
187 188 422 438 0
-187 -188 0
-187 -422 0
-187 -438 0
-188 -422 0
-188 -438 0
-422 -438 0
188 189 423 439 0
-188 -189 0
-188 -423 0
-188 -439 0
-189 -423 0
-189 -439 0
-423 -439 0
189 190 424 440 0
-189 -190 0
-189 -424 0
-189 -440 0
-190 -424 0
-190 -440 0
-424 -440 0
190 191 425 441 0
-190 -191 0
-190 -425 0
-190 -441 0
-191 -425 0
-191 -441 0
-425 -441 0
191 192 426 442 0
-191 -192 0
-191 -426 0
-191 -442 0
-192 -426 0
-192 -442 0
-426 -442 0
192 193 427 443 0
-192 -193 0
-192 -427 0
-192 -443 0
-193 -427 0
-193 -443 0
-427 -443 0
193 194 428 444 0
-193 -194 0
-193 -428 0
-193 -444 0
-194 -428 0
-194 -444 0
-428 -444 0
195 196 431 447 0
-195 -196 0
-195 -431 0
-195 -447 0
-196 -431 0
-196 -447 0
-431 -447 0
196 197 432 448 0
-196 -197 0
-196 -432 0
-196 -448 0
-197 -432 0
-197 -448 0
-432 -448 0
197 198 433 449 0
-197 -198 0
-197 -433 0
-197 -449 0
-198 -433 0
-198 -449 0
-433 -449 0
198 199 434 450 0
-198 -199 0
-198 -434 0
-198 -450 0
-199 -434 0
-199 -450 0
-434 -450 0
199 200 435 451 0
-199 -200 0
-199 -435 0
-199 -451 0
-200 -435 0
-200 -451 0
-435 -451 0
200 201 436 452 0
-200 -201 0
-200 -436 0
-200 -452 0
-201 -436 0
-201 -452 0
-436 -452 0
201 202 437 453 0
-201 -202 0
-201 -437 0
-201 -453 0
-202 -437 0
-202 -453 0
-437 -453 0
202 203 438 454 0
-202 -203 0
-202 -438 0
-202 -454 0
-203 -438 0
-203 -454 0
-438 -454 0
203 204 439 455 0
-203 -204 0
-203 -439 0
-203 -455 0
-204 -439 0
-204 -455 0
-439 -455 0
204 205 440 456 0
-204 -205 0
-204 -440 0
-204 -456 0
-205 -440 0
-205 -456 0
-440 -456 0
205 206 441 457 0
-205 -206 0
-205 -441 0
-205 -457 0
-206 -441 0
-206 -457 0
-441 -457 0
206 207 442 458 0
-206 -207 0
-206 -442 0
-206 -458 0
-207 -442 0
-207 -458 0
-442 -458 0
207 208 443 459 0
-207 -208 0
-207 -443 0
-207 -459 0
-208 -443 0
-208 -459 0
-443 -459 0
208 209 444 460 0
-208 -209 0
-208 -444 0
-208 -460 0
-209 -444 0
-209 -460 0
-444 -460 0
210 211 447 463 0
-210 -211 0
-210 -447 0
-210 -463 0
-211 -447 0
-211 -463 0
-447 -463 0
211 212 448 464 0
-211 -212 0
-211 -448 0
-211 -464 0
-212 -448 0
-212 -464 0
-448 -464 0
212 213 449 465 0
-212 -213 0
-212 -449 0
-212 -465 0
-213 -449 0
-213 -465 0
-449 -465 0
213 214 450 466 0
-213 -214 0
-213 -450 0
-213 -466 0
-214 -450 0
-214 -466 0
-450 -466 0
214 215 451 467 0
-214 -215 0
-214 -451 0
-214 -467 0
-215 -451 0
-215 -467 0
-451 -467 0
215 216 452 468 0
-215 -216 0
-215 -452 0
-215 -468 0
-216 -452 0
-216 -468 0
-452 -468 0
216 217 453 469 0
-216 -217 0
-216 -453 0
-216 -469 0
-217 -453 0
-217 -469 0
-453 -469 0
217 218 454 470 0
-217 -218 0
-217 -454 0
-217 -470 0
-218 -454 0
-218 -470 0
-454 -470 0
218 219 455 471 0
-218 -219 0
-218 -455 0
-218 -471 0
-219 -455 0
-219 -471 0
-455 -471 0
219 220 456 472 0
-219 -220 0
-219 -456 0
-219 -472 0
-220 -456 0
-220 -472 0
-456 -472 0
220 221 457 473 0
-220 -221 0
-220 -457 0
-220 -473 0
-221 -457 0
-221 -473 0
-457 -473 0
221 222 458 474 0
-221 -222 0
-221 -458 0
-221 -474 0
-222 -458 0
-222 -474 0
-458 -474 0
222 223 459 475 0
-222 -223 0
-222 -459 0
-222 -475 0
-223 -459 0
-223 -475 0
-459 -475 0
223 224 460 476 0
-223 -224 0
-223 -460 0
-223 -476 0
-224 -460 0
-224 -476 0
-460 -476 0
